311
500
399	3
398	1
397	2
395	2
394	5
393	1
392	1
391	1
390	3
388	2
387	2
386	1
384	3
383	3
382	1
381	2
380	2
379	2
378	4
377	5
376	3
375	1
373	3
372	3
370	2
369	1
368	1
367	1
366	2
365	3
364	3
362	2
361	4
360	1
359	2
358	2
357	3
355	3
354	2
353	2
351	4
350	1
349	7
348	2
347	3
346	3
345	2
344	4
343	1
342	2
341	2
340	1
339	3
338	3
337	4
336	2
335	2
334	3
332	3
331	4
330	5
329	6
328	2
327	3
326	1
325	3
324	1
323	1
322	5
319	1
318	4
317	2
316	2
315	5
314	1
313	4
312	1
311	2
310	2
309	1
308	2
307	1
306	3
304	2
303	3
302	4
301	3
300	3
299	1
297	2
296	2
295	3
294	1
293	4
292	2
291	2
290	1
289	2
288	3
287	1
285	2
284	1
283	3
282	2
281	2
280	2
279	2
278	2
277	2
276	4
274	2
273	3
272	3
271	3
270	2
267	2
266	3
265	2
264	1
263	3
262	6
260	3
258	2
256	1
255	1
254	4
253	5
251	3
250	2
249	2
248	1
247	1
246	2
245	2
244	2
243	2
242	2
241	4
240	2
238	5
235	1
234	2
233	1
232	2
231	3
230	1
229	1
228	2
227	3
226	5
225	3
224	1
223	2
222	4
221	1
220	1
219	5
218	2
217	8
216	2
215	3
214	1
212	2
210	2
209	2
208	1
207	4
206	2
205	1
204	3
203	3
202	2
200	4
199	4
198	3
196	2
195	5
194	3
193	5
192	4
191	4
190	1
189	1
188	1
187	2
186	2
185	4
184	1
183	2
182	3
181	1
179	1
178	2
177	2
176	1
175	2
174	1
173	4
172	1
171	1
170	4
169	2
168	3
167	3
166	1
165	3
164	3
163	6
161	1
160	3
159	4
158	2
157	2
156	1
155	2
154	5
153	2
152	3
151	2
150	1
149	3
148	1
147	3
146	2
145	2
144	6
143	7
142	3
141	1
140	4
139	1
137	1
135	3
134	2
132	2
131	2
130	1
129	1
128	5
127	2
126	1
125	2
124	3
122	4
121	1
120	1
119	2
118	3
117	1
116	2
115	3
114	1
113	3
112	2
111	5
110	1
109	1
108	1
107	2
106	1
104	2
103	1
102	3
101	3
100	2
99	4
98	2
97	1
96	2
95	1
94	3
93	1
92	4
91	1
90	2
89	2
88	3
87	1
86	3
85	3
82	4
81	2
80	4
79	3
78	1
77	3
76	3
75	4
74	7
73	1
72	1
71	3
70	3
69	2
68	3
67	3
66	3
65	2
64	3
62	1
61	1
60	2
59	3
58	1
57	2
56	3
55	1
53	3
52	2
51	2
50	1
